c generated by sgen
p cnf 41 92
-2 -3 -4 0
-1 -3 -4 0
-1 -2 -4 0
-1 -2 -3 0
-6 -7 -8 0
-5 -7 -8 0
-5 -6 -8 0
-5 -6 -7 0
-10 -11 -12 0
-9 -11 -12 0
-9 -10 -12 0
-9 -10 -11 0
-14 -15 -16 0
-13 -15 -16 0
-13 -14 -16 0
-13 -14 -15 0
-18 -19 -20 0
-17 -19 -20 0
-17 -18 -20 0
-17 -18 -19 0
-22 -23 -24 0
-21 -23 -24 0
-21 -22 -24 0
-21 -22 -23 0
-26 -27 -28 0
-25 -27 -28 0
-25 -26 -28 0
-25 -26 -27 0
-30 -31 -32 0
-29 -31 -32 0
-29 -30 -32 0
-29 -30 -31 0
-34 -35 -36 0
-33 -35 -36 0
-33 -34 -36 0
-33 -34 -35 0
-37 -38 -39 0
-37 -38 -40 0
-37 -38 -41 0
-37 -39 -40 0
-37 -39 -41 0
-37 -40 -41 0
-38 -39 -40 0
-38 -39 -41 0
-38 -40 -41 0
-39 -40 -41 0
35 2 18 0
23 2 18 0
23 35 18 0
23 35 2 0
34 8 37 0
12 8 37 0
12 34 37 0
12 34 8 0
19 29 40 0
4 29 40 0
4 19 40 0
4 19 29 0
24 32 5 0
38 32 5 0
38 24 5 0
38 24 32 0
20 41 9 0
28 41 9 0
28 20 9 0
28 20 41 0
6 15 26 0
1 15 26 0
1 6 26 0
1 6 15 0
16 17 7 0
31 17 7 0
31 16 7 0
31 16 17 0
21 3 14 0
10 3 14 0
10 21 14 0
10 21 3 0
39 25 36 0
13 25 36 0
13 39 36 0
13 39 25 0
22 30 33 0
22 30 27 0
22 30 11 0
22 33 27 0
22 33 11 0
22 27 11 0
30 33 27 0
30 33 11 0
30 27 11 0
33 27 11 0
